32	0

0	1	2
7	1	3
10	1	4
6	1	5
9	1	6
7	1	7
7	1	8
6	1	9
3	1	10
3	1	11
7	2	12	13
7	1	14
3	1	14
10	1	15
7	1	16
5	2	17	18
10	1	20
2	1	19
3	1	20
1	1	21
5	1	22
4	2	23	24
6	1	25
8	1	25
7	1	26
3	1	27
6	2	28	29
8	1	30
6	2	30	31
10	1	32
5	1	32
0	0
